============================[ Problem Statistics ]=============================|                                                                             ||  Number of variables:          4242                                         ||  Number of clauses:           10408                                         ||  Parse time:                   0.80 s                                       ||                                                                             |============================[ Search Statistics ]==============================| Conflicts |          ORIGINAL         |          LEARNT          | Progress ||           |    Vars  Clauses Literals |    Limit  Clauses Lit/Cl |          |===============================================================================|       100 |    1591     6613  1268684 |     2424      100     53 | 62.501 % ||       250 |    1591     6613  1268684 |     2667      250     75 | 62.495 % |===============================================================================restarts              : 4conflicts             : 429            (357 /sec)decisions             : 790            (0.00 % random) (657 /sec)propagations          : 13703          (11391 /sec)conflict literals     : 36052          (94.49 % deleted)CPU time              : 1.203 sSATISFIABLE